p cnf 379 1047
8 0
15 0
22 0
29 0
36 0
43 0
16 0
23 0
30 0
37 0
44 0
24 0
31 0
38 0
45 0
32 0
39 0
46 0
40 0
47 0
48 0
-8 -16 15 0
-8 -23 22 0
-8 -30 29 0
-8 -37 36 0
-8 -44 43 0
-15 -10 8 0
-15 -24 22 0
-15 -31 29 0
-15 -38 36 0
-15 -45 43 0
-22 -11 8 0
-22 -18 15 0
-22 -32 29 0
-22 -39 36 0
-22 -46 43 0
-29 -12 8 0
-29 -19 15 0
-29 -26 22 0
-29 -40 36 0
-29 -47 43 0
-36 -13 8 0
-36 -20 15 0
-36 -27 22 0
-36 -34 29 0
-36 -48 43 0
-43 -14 8 0
-43 -21 15 0
-43 -28 22 0
-43 -35 29 0
-43 -42 36 0
-2 -15 16 0
-2 -22 23 0
-2 -29 30 0
-2 -36 37 0
-2 -43 44 0
-16 -3 2 0
-16 -24 23 0
-16 -31 30 0
-16 -38 37 0
-16 -45 44 0
-23 -4 2 0
-23 -18 16 0
-23 -32 30 0
-23 -39 37 0
-23 -46 44 0
-30 -5 2 0
-30 -19 16 0
-30 -26 23 0
-30 -40 37 0
-30 -47 44 0
-37 -6 2 0
-37 -20 16 0
-37 -27 23 0
-37 -34 30 0
-37 -48 44 0
-44 -7 2 0
-44 -21 16 0
-44 -28 23 0
-44 -35 30 0
-44 -42 37 0
-3 -8 10 0
-3 -22 24 0
-3 -29 31 0
-3 -36 38 0
-3 -43 45 0
-10 -2 3 0
-10 -23 24 0
-10 -30 31 0
-10 -37 38 0
-10 -44 45 0
-24 -4 3 0
-24 -11 10 0
-24 -32 31 0
-24 -39 38 0
-24 -46 45 0
-31 -5 3 0
-31 -12 10 0
-31 -26 24 0
-31 -40 38 0
-31 -47 45 0
-38 -6 3 0
-38 -13 10 0
-38 -27 24 0
-38 -34 31 0
-38 -48 45 0
-45 -7 3 0
-45 -14 10 0
-45 -28 24 0
-45 -35 31 0
-45 -42 38 0
-4 -8 11 0
-4 -15 18 0
-4 -29 32 0
-4 -36 39 0
-4 -43 46 0
-11 -2 4 0
-11 -16 18 0
-11 -30 32 0
-11 -37 39 0
-11 -44 46 0
-18 -3 4 0
-18 -10 11 0
-18 -31 32 0
-18 -38 39 0
-18 -45 46 0
-32 -5 4 0
-32 -12 11 0
-32 -19 18 0
-32 -40 39 0
-32 -47 46 0
-39 -6 4 0
-39 -13 11 0
-39 -20 18 0
-39 -34 32 0
-39 -48 46 0
-46 -7 4 0
-46 -14 11 0
-46 -21 18 0
-46 -35 32 0
-46 -42 39 0
-5 -8 12 0
-5 -15 19 0
-5 -22 26 0
-5 -36 40 0
-5 -43 47 0
-12 -2 5 0
-12 -16 19 0
-12 -23 26 0
-12 -37 40 0
-12 -44 47 0
-19 -3 5 0
-19 -10 12 0
-19 -24 26 0
-19 -38 40 0
-19 -45 47 0
-26 -4 5 0
-26 -11 12 0
-26 -18 19 0
-26 -39 40 0
-26 -46 47 0
-40 -6 5 0
-40 -13 12 0
-40 -20 19 0
-40 -27 26 0
-40 -48 47 0
-47 -7 5 0
-47 -14 12 0
-47 -21 19 0
-47 -28 26 0
-47 -42 40 0
-6 -8 13 0
-6 -15 20 0
-6 -22 27 0
-6 -29 34 0
-6 -43 48 0
-13 -2 6 0
-13 -16 20 0
-13 -23 27 0
-13 -30 34 0
-13 -44 48 0
-20 -3 6 0
-20 -10 13 0
-20 -24 27 0
-20 -31 34 0
-20 -45 48 0
-27 -4 6 0
-27 -11 13 0
-27 -18 20 0
-27 -32 34 0
-27 -46 48 0
-34 -5 6 0
-34 -12 13 0
-34 -19 20 0
-34 -26 27 0
-34 -47 48 0
-48 -7 6 0
-48 -14 13 0
-48 -21 20 0
-48 -28 27 0
-48 -35 34 0
-7 -8 14 0
-7 -15 21 0
-7 -22 28 0
-7 -29 35 0
-7 -36 42 0
-14 -2 7 0
-14 -16 21 0
-14 -23 28 0
-14 -30 35 0
-14 -37 42 0
-21 -3 7 0
-21 -10 14 0
-21 -24 28 0
-21 -31 35 0
-21 -38 42 0
-28 -4 7 0
-28 -11 14 0
-28 -18 21 0
-28 -32 35 0
-28 -39 42 0
-35 -5 7 0
-35 -12 14 0
-35 -19 21 0
-35 -26 28 0
-35 -40 42 0
-42 -6 7 0
-42 -13 14 0
-42 -20 21 0
-42 -27 28 0
-42 -34 35 0
-57 -65 64 0
-57 -72 71 0
-57 -79 78 0
-57 -86 85 0
-57 -93 92 0
-64 -59 57 0
-64 -73 71 0
-64 -80 78 0
-64 -87 85 0
-64 -94 92 0
-71 -60 57 0
-71 -67 64 0
-71 -81 78 0
-71 -88 85 0
-71 -95 92 0
-78 -61 57 0
-78 -68 64 0
-78 -75 71 0
-78 -89 85 0
-78 -96 92 0
-85 -62 57 0
-85 -69 64 0
-85 -76 71 0
-85 -83 78 0
-85 -97 92 0
-92 -63 57 0
-92 -70 64 0
-92 -77 71 0
-92 -84 78 0
-92 -91 85 0
-51 -64 65 0
-51 -71 72 0
-51 -78 79 0
-51 -85 86 0
-51 -92 93 0
-65 -52 51 0
-65 -73 72 0
-65 -80 79 0
-65 -87 86 0
-65 -94 93 0
-72 -53 51 0
-72 -67 65 0
-72 -81 79 0
-72 -88 86 0
-72 -95 93 0
-79 -54 51 0
-79 -68 65 0
-79 -75 72 0
-79 -89 86 0
-79 -96 93 0
-86 -55 51 0
-86 -69 65 0
-86 -76 72 0
-86 -83 79 0
-86 -97 93 0
-93 -56 51 0
-93 -70 65 0
-93 -77 72 0
-93 -84 79 0
-93 -91 86 0
-52 -57 59 0
-52 -71 73 0
-52 -78 80 0
-52 -85 87 0
-52 -92 94 0
-59 -51 52 0
-59 -72 73 0
-59 -79 80 0
-59 -86 87 0
-59 -93 94 0
-73 -53 52 0
-73 -60 59 0
-73 -81 80 0
-73 -88 87 0
-73 -95 94 0
-80 -54 52 0
-80 -61 59 0
-80 -75 73 0
-80 -89 87 0
-80 -96 94 0
-87 -55 52 0
-87 -62 59 0
-87 -76 73 0
-87 -83 80 0
-87 -97 94 0
-94 -56 52 0
-94 -63 59 0
-94 -77 73 0
-94 -84 80 0
-94 -91 87 0
-53 -57 60 0
-53 -64 67 0
-53 -78 81 0
-53 -85 88 0
-53 -92 95 0
-60 -51 53 0
-60 -65 67 0
-60 -79 81 0
-60 -86 88 0
-60 -93 95 0
-67 -52 53 0
-67 -59 60 0
-67 -80 81 0
-67 -87 88 0
-67 -94 95 0
-81 -54 53 0
-81 -61 60 0
-81 -68 67 0
-81 -89 88 0
-81 -96 95 0
-88 -55 53 0
-88 -62 60 0
-88 -69 67 0
-88 -83 81 0
-88 -97 95 0
-95 -56 53 0
-95 -63 60 0
-95 -70 67 0
-95 -84 81 0
-95 -91 88 0
-54 -57 61 0
-54 -64 68 0
-54 -71 75 0
-54 -85 89 0
-54 -92 96 0
-61 -51 54 0
-61 -65 68 0
-61 -72 75 0
-61 -86 89 0
-61 -93 96 0
-68 -52 54 0
-68 -59 61 0
-68 -73 75 0
-68 -87 89 0
-68 -94 96 0
-75 -53 54 0
-75 -60 61 0
-75 -67 68 0
-75 -88 89 0
-75 -95 96 0
-89 -55 54 0
-89 -62 61 0
-89 -69 68 0
-89 -76 75 0
-89 -97 96 0
-96 -56 54 0
-96 -63 61 0
-96 -70 68 0
-96 -77 75 0
-96 -91 89 0
-55 -57 62 0
-55 -64 69 0
-55 -71 76 0
-55 -78 83 0
-55 -92 97 0
-62 -51 55 0
-62 -65 69 0
-62 -72 76 0
-62 -79 83 0
-62 -93 97 0
-69 -52 55 0
-69 -59 62 0
-69 -73 76 0
-69 -80 83 0
-69 -94 97 0
-76 -53 55 0
-76 -60 62 0
-76 -67 69 0
-76 -81 83 0
-76 -95 97 0
-83 -54 55 0
-83 -61 62 0
-83 -68 69 0
-83 -75 76 0
-83 -96 97 0
-97 -56 55 0
-97 -63 62 0
-97 -70 69 0
-97 -77 76 0
-97 -84 83 0
-56 -57 63 0
-56 -64 70 0
-56 -71 77 0
-56 -78 84 0
-56 -85 91 0
-63 -51 56 0
-63 -65 70 0
-63 -72 77 0
-63 -79 84 0
-63 -86 91 0
-70 -52 56 0
-70 -59 63 0
-70 -73 77 0
-70 -80 84 0
-70 -87 91 0
-77 -53 56 0
-77 -60 63 0
-77 -67 70 0
-77 -81 84 0
-77 -88 91 0
-84 -54 56 0
-84 -61 63 0
-84 -68 70 0
-84 -75 77 0
-84 -89 91 0
-91 -55 56 0
-91 -62 63 0
-91 -69 70 0
-91 -76 77 0
-91 -83 84 0
-106 -114 113 0
-106 -121 120 0
-106 -128 127 0
-106 -135 134 0
-106 -142 141 0
-113 -108 106 0
-113 -122 120 0
-113 -129 127 0
-113 -136 134 0
-113 -143 141 0
-120 -109 106 0
-120 -116 113 0
-120 -130 127 0
-120 -137 134 0
-120 -144 141 0
-127 -110 106 0
-127 -117 113 0
-127 -124 120 0
-127 -138 134 0
-127 -145 141 0
-134 -111 106 0
-134 -118 113 0
-134 -125 120 0
-134 -132 127 0
-134 -146 141 0
-141 -112 106 0
-141 -119 113 0
-141 -126 120 0
-141 -133 127 0
-141 -140 134 0
-100 -113 114 0
-100 -120 121 0
-100 -127 128 0
-100 -134 135 0
-100 -141 142 0
-114 -101 100 0
-114 -122 121 0
-114 -129 128 0
-114 -136 135 0
-114 -143 142 0
-121 -102 100 0
-121 -116 114 0
-121 -130 128 0
-121 -137 135 0
-121 -144 142 0
-128 -103 100 0
-128 -117 114 0
-128 -124 121 0
-128 -138 135 0
-128 -145 142 0
-135 -104 100 0
-135 -118 114 0
-135 -125 121 0
-135 -132 128 0
-135 -146 142 0
-142 -105 100 0
-142 -119 114 0
-142 -126 121 0
-142 -133 128 0
-142 -140 135 0
-101 -106 108 0
-101 -120 122 0
-101 -127 129 0
-101 -134 136 0
-101 -141 143 0
-108 -100 101 0
-108 -121 122 0
-108 -128 129 0
-108 -135 136 0
-108 -142 143 0
-122 -102 101 0
-122 -109 108 0
-122 -130 129 0
-122 -137 136 0
-122 -144 143 0
-129 -103 101 0
-129 -110 108 0
-129 -124 122 0
-129 -138 136 0
-129 -145 143 0
-136 -104 101 0
-136 -111 108 0
-136 -125 122 0
-136 -132 129 0
-136 -146 143 0
-143 -105 101 0
-143 -112 108 0
-143 -126 122 0
-143 -133 129 0
-143 -140 136 0
-102 -106 109 0
-102 -113 116 0
-102 -127 130 0
-102 -134 137 0
-102 -141 144 0
-109 -100 102 0
-109 -114 116 0
-109 -128 130 0
-109 -135 137 0
-109 -142 144 0
-116 -101 102 0
-116 -108 109 0
-116 -129 130 0
-116 -136 137 0
-116 -143 144 0
-130 -103 102 0
-130 -110 109 0
-130 -117 116 0
-130 -138 137 0
-130 -145 144 0
-137 -104 102 0
-137 -111 109 0
-137 -118 116 0
-137 -132 130 0
-137 -146 144 0
-144 -105 102 0
-144 -112 109 0
-144 -119 116 0
-144 -133 130 0
-144 -140 137 0
-103 -106 110 0
-103 -113 117 0
-103 -120 124 0
-103 -134 138 0
-103 -141 145 0
-110 -100 103 0
-110 -114 117 0
-110 -121 124 0
-110 -135 138 0
-110 -142 145 0
-117 -101 103 0
-117 -108 110 0
-117 -122 124 0
-117 -136 138 0
-117 -143 145 0
-124 -102 103 0
-124 -109 110 0
-124 -116 117 0
-124 -137 138 0
-124 -144 145 0
-138 -104 103 0
-138 -111 110 0
-138 -118 117 0
-138 -125 124 0
-138 -146 145 0
-145 -105 103 0
-145 -112 110 0
-145 -119 117 0
-145 -126 124 0
-145 -140 138 0
-104 -106 111 0
-104 -113 118 0
-104 -120 125 0
-104 -127 132 0
-104 -141 146 0
-111 -100 104 0
-111 -114 118 0
-111 -121 125 0
-111 -128 132 0
-111 -142 146 0
-118 -101 104 0
-118 -108 111 0
-118 -122 125 0
-118 -129 132 0
-118 -143 146 0
-125 -102 104 0
-125 -109 111 0
-125 -116 118 0
-125 -130 132 0
-125 -144 146 0
-132 -103 104 0
-132 -110 111 0
-132 -117 118 0
-132 -124 125 0
-132 -145 146 0
-146 -105 104 0
-146 -112 111 0
-146 -119 118 0
-146 -126 125 0
-146 -133 132 0
-105 -106 112 0
-105 -113 119 0
-105 -120 126 0
-105 -127 133 0
-105 -134 140 0
-112 -100 105 0
-112 -114 119 0
-112 -121 126 0
-112 -128 133 0
-112 -135 140 0
-119 -101 105 0
-119 -108 112 0
-119 -122 126 0
-119 -129 133 0
-119 -136 140 0
-126 -102 105 0
-126 -109 112 0
-126 -116 119 0
-126 -130 133 0
-126 -137 140 0
-133 -103 105 0
-133 -110 112 0
-133 -117 119 0
-133 -124 126 0
-133 -138 140 0
-140 -104 105 0
-140 -111 112 0
-140 -118 119 0
-140 -125 126 0
-140 -132 133 0
8 2 0
-8 -2 0
15 3 0
-15 -3 0
22 4 0
-22 -4 0
29 5 0
-29 -5 0
36 6 0
-36 -6 0
43 7 0
-43 -7 0
2 8 0
-2 -8 0
16 10 0
-16 -10 0
23 11 0
-23 -11 0
30 12 0
-30 -12 0
37 13 0
-37 -13 0
44 14 0
-44 -14 0
3 15 0
-3 -15 0
10 16 0
-10 -16 0
24 18 0
-24 -18 0
31 19 0
-31 -19 0
38 20 0
-38 -20 0
45 21 0
-45 -21 0
4 22 0
-4 -22 0
11 23 0
-11 -23 0
18 24 0
-18 -24 0
32 26 0
-32 -26 0
39 27 0
-39 -27 0
46 28 0
-46 -28 0
5 29 0
-5 -29 0
12 30 0
-12 -30 0
19 31 0
-19 -31 0
26 32 0
-26 -32 0
40 34 0
-40 -34 0
47 35 0
-47 -35 0
6 36 0
-6 -36 0
13 37 0
-13 -37 0
20 38 0
-20 -38 0
27 39 0
-27 -39 0
34 40 0
-34 -40 0
48 42 0
-48 -42 0
7 43 0
-7 -43 0
14 44 0
-14 -44 0
21 45 0
-21 -45 0
28 46 0
-28 -46 0
35 47 0
-35 -47 0
42 48 0
-42 -48 0
57 51 0
-57 -51 0
64 52 0
-64 -52 0
71 53 0
-71 -53 0
78 54 0
-78 -54 0
85 55 0
-85 -55 0
92 56 0
-92 -56 0
51 57 0
-51 -57 0
65 59 0
-65 -59 0
72 60 0
-72 -60 0
79 61 0
-79 -61 0
86 62 0
-86 -62 0
93 63 0
-93 -63 0
52 64 0
-52 -64 0
59 65 0
-59 -65 0
73 67 0
-73 -67 0
80 68 0
-80 -68 0
87 69 0
-87 -69 0
94 70 0
-94 -70 0
53 71 0
-53 -71 0
60 72 0
-60 -72 0
67 73 0
-67 -73 0
81 75 0
-81 -75 0
88 76 0
-88 -76 0
95 77 0
-95 -77 0
54 78 0
-54 -78 0
61 79 0
-61 -79 0
68 80 0
-68 -80 0
75 81 0
-75 -81 0
89 83 0
-89 -83 0
96 84 0
-96 -84 0
55 85 0
-55 -85 0
62 86 0
-62 -86 0
69 87 0
-69 -87 0
76 88 0
-76 -88 0
83 89 0
-83 -89 0
97 91 0
-97 -91 0
56 92 0
-56 -92 0
63 93 0
-63 -93 0
70 94 0
-70 -94 0
77 95 0
-77 -95 0
84 96 0
-84 -96 0
91 97 0
-91 -97 0
106 100 0
-106 -100 0
113 101 0
-113 -101 0
120 102 0
-120 -102 0
127 103 0
-127 -103 0
134 104 0
-134 -104 0
141 105 0
-141 -105 0
100 106 0
-100 -106 0
114 108 0
-114 -108 0
121 109 0
-121 -109 0
128 110 0
-128 -110 0
135 111 0
-135 -111 0
142 112 0
-142 -112 0
101 113 0
-101 -113 0
108 114 0
-108 -114 0
122 116 0
-122 -116 0
129 117 0
-129 -117 0
136 118 0
-136 -118 0
143 119 0
-143 -119 0
102 120 0
-102 -120 0
109 121 0
-109 -121 0
116 122 0
-116 -122 0
130 124 0
-130 -124 0
137 125 0
-137 -125 0
144 126 0
-144 -126 0
103 127 0
-103 -127 0
110 128 0
-110 -128 0
117 129 0
-117 -129 0
124 130 0
-124 -130 0
138 132 0
-138 -132 0
145 133 0
-145 -133 0
104 134 0
-104 -134 0
111 135 0
-111 -135 0
118 136 0
-118 -136 0
125 137 0
-125 -137 0
132 138 0
-132 -138 0
146 140 0
-146 -140 0
105 141 0
-105 -141 0
112 142 0
-112 -142 0
119 143 0
-119 -143 0
126 144 0
-126 -144 0
133 145 0
-133 -145 0
140 146 0
-140 -146 0
-344 -350 0
-345 -351 0
-346 -352 0
-347 -353 0
-348 -354 0
-349 -355 0
344 350 0
345 351 0
346 352 0
347 353 0
348 354 0
349 355 0
-344 -16 -65 0
-344 16 65 0
-350 -65 -114 0
-350 65 114 0
-345 -23 -72 0
-345 23 72 0
-351 -72 -121 0
-351 72 121 0
-346 -24 -73 0
-346 24 73 0
-352 -73 -122 0
-352 73 122 0
-347 -40 -89 0
-347 40 89 0
-353 -89 -138 0
-353 89 138 0
-348 -47 -96 0
-348 47 96 0
-354 -96 -145 0
-354 96 145 0
-349 -48 -97 0
-349 48 97 0
-355 -97 -146 0
-355 97 146 0
-8 57 0
8 -57 0
-15 64 0
15 -64 0
-22 71 0
22 -71 0
-29 78 0
29 -78 0
-36 85 0
36 -85 0
-43 92 0
43 -92 0
-16 65 344 0
16 -65 344 0
-23 72 345 0
23 -72 345 0
-30 79 0
30 -79 0
-37 86 0
37 -86 0
-44 93 0
44 -93 0
-24 73 346 0
24 -73 346 0
-31 80 0
31 -80 0
-38 87 0
38 -87 0
-45 94 0
45 -94 0
-32 81 0
32 -81 0
-39 88 0
39 -88 0
-46 95 0
46 -95 0
-40 89 347 0
40 -89 347 0
-47 96 348 0
47 -96 348 0
-48 97 349 0
48 -97 349 0
-57 106 0
57 -106 0
-64 113 0
64 -113 0
-71 120 0
71 -120 0
-78 127 0
78 -127 0
-85 134 0
85 -134 0
-92 141 0
92 -141 0
-65 114 350 0
65 -114 350 0
-72 121 351 0
72 -121 351 0
-79 128 0
79 -128 0
-86 135 0
86 -135 0
-93 142 0
93 -142 0
-73 122 352 0
73 -122 352 0
-80 129 0
80 -129 0
-87 136 0
87 -136 0
-94 143 0
94 -143 0
-81 130 0
81 -130 0
-88 137 0
88 -137 0
-95 144 0
95 -144 0
-89 138 353 0
89 -138 353 0
-96 145 354 0
96 -145 354 0
-97 146 355 0
97 -146 355 0
-344 -345 0
-344 -346 0
-345 -344 0
-345 -346 0
-346 -344 0
-346 -345 0
-347 -348 0
-347 -349 0
-348 -347 0
-348 -349 0
-349 -347 0
-349 -348 0
-350 -351 0
-350 -352 0
-351 -350 0
-351 -352 0
-352 -350 0
-352 -351 0
-353 -354 0
-353 -355 0
-354 -353 0
-354 -355 0
-355 -353 0
-355 -354 0